c User generated cnf file
p cnf 6 35
3 2 -6 0 
5 2 -5 0 
3 4 -4 0 
-4 4 6 0 
4 -6 2 0 
-2 3 6 0 
3 2 -5 0 
1 5 -1 0 
-5 6 3 0 
-5 2 4 0 
1 2 -3 0 
6 5 -6 0 
1 4 -5 0 
3 1 -4 0 
-5 6 3 0 
5 1 -5 0 
5 -1 5 0 
1 -5 3 0 
-3 4 1 0 
5 3 -1 0 
-6 6 2 0 
4 -5 6 0 
3 3 -2 0 
-4 6 5 0 
3 4 -5 0 
6 -6 6 0 
-3 1 2 0 
-4 4 3 0 
4 2 -4 0 
4 -4 3 0 
-1 4 5 0 
2 -3 3 0 
-3 1 5 0 
1 3 -1 0 
2 6 -4 0 
